NAME: ./prFile/tspFile/tsp_file75.tsp
COMMENT: TSP file generated by Python
TYPE: TSP
DIMENSION: 40
EDGE_WEIGHT_TYPE: EUC_2D
NODE_COORD_SECTION
1 99 49
2 37 5
3 36 2
4 10 72
5 60 74
6 25 73
7 59 87
8 25 3
9 96 96
10 31 65
11 41 66
12 99 79
13 85 24
14 4 42
15 79 15
16 84 100
17 14 88
18 29 61
19 50 56
20 96 15
21 90 87
22 94 94
23 50 33
24 84 96
25 19 99
26 75 90
27 86 2
28 95 56
29 71 88
30 63 64
31 86 100
32 7 90
33 8 64
34 47 95
35 8 33
36 7 70
37 93 65
38 2 86
39 12 80
40 57 86
EOF
